p cnf 43 147
3 1 0
3 -2 0
-1 2 -3 0
-5 -4 0
-5 1 0
4 -1 5 0
-6 3 0
-6 -5 0
-3 5 6 0
9 7 0
9 -8 0
-7 8 -9 0
-10 -1 -11 0
10 1 -11 0
-10 1 11 0
10 -1 11 0
12 -9 0
12 11 0
9 -11 -12 0
14 -11 0
14 13 0
11 -13 -14 0
-14 15 -16 0
14 -15 -16 0
-14 -15 16 0
14 15 16 0
-17 -2 0
-17 16 0
2 -16 17 0
-18 13 0
-18 -17 0
-13 17 18 0
-19 18 0
-19 -14 0
-18 14 19 0
-8 -19 -20 0
8 19 -20 0
-8 19 20 0
8 -19 20 0
8 -21 -22 0
-8 21 -22 0
8 21 22 0
-8 -21 22 0
-2 -22 -23 0
2 22 -23 0
-2 22 23 0
2 -22 23 0
-24 -20 0
-24 -23 0
20 23 24 0
-12 24 -25 0
12 -24 -25 0
-12 -24 25 0
12 24 25 0
26 15 0
26 4 0
-15 -4 -26 0
-27 18 0
-27 -26 0
-18 26 27 0
1 -27 -28 0
-1 27 -28 0
1 27 28 0
-1 -27 28 0
-29 -13 0
-29 18 0
13 -18 29 0
30 -28 0
30 29 0
28 -29 -30 0
-31 25 0
-31 30 0
-25 -30 31 0
-32 6 0
-32 31 0
-6 -31 32 0
33 -11 0
33 18 0
11 -18 -33 0
14 15 -34 0
-14 -15 -34 0
14 -15 34 0
-14 15 34 0
11 -35 -36 0
-11 35 -36 0
11 35 36 0
-11 -35 36 0
-18 -16 -37 0
18 16 -37 0
-18 16 37 0
18 -16 37 0
38 14 0
38 13 0
-14 -13 -38 0
-37 38 -39 0
37 -38 -39 0
-37 -38 39 0
37 38 39 0
40 -36 0
40 39 0
36 -39 -40 0
-34 40 -41 0
34 -40 -41 0
-34 -40 41 0
34 40 41 0
-33 41 -42 0
33 -41 -42 0
-33 -41 42 0
33 41 42 0
-43 -32 0
-43 -42 0
32 42 43 0
-29 4 -12 6 25 0
-6 20 -3 0
-27 33 0
-11 -24 0
-1 -8 -9 24 -16 0
25 -41 0
-16 28 2 0
-13 15 -16 -31 -20 0
25 -20 27 0
-28 -31 0
15 29 0
-9 36 0
21 -31 0
-29 -33 -8 7 0
43 9 32 0
2 -16 15 11 0
2 9 -26 25 5 -8 0
42 32 -23 34 -20 3 0
25 -23 -31 0
-43 -16 38 0
-5 -2 20 16 32 43 0
-33 31 0
33 -36 -6 34 0
8 -41 0
-33 13 37 28 0
43 41 22 21 0
25 43 -42 0
-14 8 9 0
6 1 -2 8 3 0
-24 4 35 0
28 -23 42 30 -8 0
3 32 -23 10 4 0
-12 -30 -22 -2 37 0
12 10 -18 4 31 0
43 0
